\ENCODING=ISO-8859-1
\Problem name: 

Minimize
 obj: 0.707106781186548 X_0_0 + 1.58113883008419 X_0_1 + 2.54950975679639 X_0_2
      + 3.53553390593274 X_0_3 + 1.58113883008419 X_0_4
      + 2.12132034355964 X_0_5 + 2.91547594742265 X_0_6
      + 3.80788655293195 X_0_7 + 2.54950975679639 X_0_8
      + 2.91547594742265 X_0_9 + 3.53553390593274 X_0_10
      + 4.30116263352131 X_0_11 + 3.53553390593274 X_0_12
      + 3.80788655293195 X_0_13 + 4.30116263352131 X_0_14
      + 4.94974746830583 X_0_15 + 0.707106781186548 X_1_0
      + 0.707106781186548 X_1_1 + 1.58113883008419 X_1_2
      + 2.54950975679639 X_1_3 + 1.58113883008419 X_1_4
      + 1.58113883008419 X_1_5 + 2.12132034355964 X_1_6
      + 2.91547594742265 X_1_7 + 2.54950975679639 X_1_8
      + 2.54950975679639 X_1_9 + 2.91547594742265 X_1_10
      + 3.53553390593274 X_1_11 + 3.53553390593274 X_1_12
      + 3.53553390593274 X_1_13 + 3.80788655293195 X_1_14
      + 4.30116263352131 X_1_15 + 1.58113883008419 X_2_0
      + 0.707106781186548 X_2_1 + 0.707106781186548 X_2_2
      + 1.58113883008419 X_2_3 + 2.12132034355964 X_2_4
      + 1.58113883008419 X_2_5 + 1.58113883008419 X_2_6
      + 2.12132034355964 X_2_7 + 2.91547594742265 X_2_8
      + 2.54950975679639 X_2_9 + 2.54950975679639 X_2_10
      + 2.91547594742265 X_2_11 + 3.80788655293195 X_2_12
      + 3.53553390593274 X_2_13 + 3.53553390593274 X_2_14
      + 3.80788655293195 X_2_15 + 2.54950975679639 X_3_0
      + 1.58113883008419 X_3_1 + 0.707106781186548 X_3_2
      + 0.707106781186548 X_3_3 + 2.91547594742265 X_3_4
      + 2.12132034355964 X_3_5 + 1.58113883008419 X_3_6
      + 1.58113883008419 X_3_7 + 3.53553390593274 X_3_8
      + 2.91547594742265 X_3_9 + 2.54950975679639 X_3_10
      + 2.54950975679639 X_3_11 + 4.30116263352131 X_3_12
      + 3.80788655293195 X_3_13 + 3.53553390593274 X_3_14
      + 3.53553390593274 X_3_15 + 3.53553390593274 X_4_0
      + 2.54950975679639 X_4_1 + 1.58113883008419 X_4_2
      + 0.707106781186548 X_4_3 + 3.80788655293195 X_4_4
      + 2.91547594742265 X_4_5 + 2.12132034355964 X_4_6
      + 1.58113883008419 X_4_7 + 4.30116263352131 X_4_8
      + 3.53553390593274 X_4_9 + 2.91547594742265 X_4_10
      + 2.54950975679639 X_4_11 + 4.94974746830583 X_4_12
      + 4.30116263352131 X_4_13 + 3.80788655293195 X_4_14
      + 3.53553390593274 X_4_15 + 0.707106781186548 X_5_0
      + 1.58113883008419 X_5_1 + 2.54950975679639 X_5_2
      + 3.53553390593274 X_5_3 + 0.707106781186548 X_5_4
      + 1.58113883008419 X_5_5 + 2.54950975679639 X_5_6
      + 3.53553390593274 X_5_7 + 1.58113883008419 X_5_8
      + 2.12132034355964 X_5_9 + 2.91547594742265 X_5_10
      + 3.80788655293195 X_5_11 + 2.54950975679639 X_5_12
      + 2.91547594742265 X_5_13 + 3.53553390593274 X_5_14
      + 4.30116263352131 X_5_15 + 0.707106781186548 X_6_0
      + 0.707106781186548 X_6_1 + 1.58113883008419 X_6_2
      + 2.54950975679639 X_6_3 + 0.707106781186548 X_6_4
      + 0.707106781186548 X_6_5 + 1.58113883008419 X_6_6
      + 2.54950975679639 X_6_7 + 1.58113883008419 X_6_8
      + 1.58113883008419 X_6_9 + 2.12132034355964 X_6_10
      + 2.91547594742265 X_6_11 + 2.54950975679639 X_6_12
      + 2.54950975679639 X_6_13 + 2.91547594742265 X_6_14
      + 3.53553390593274 X_6_15 + 1.58113883008419 X_7_0
      + 0.707106781186548 X_7_1 + 0.707106781186548 X_7_2
      + 1.58113883008419 X_7_3 + 1.58113883008419 X_7_4
      + 0.707106781186548 X_7_5 + 0.707106781186548 X_7_6
      + 1.58113883008419 X_7_7 + 2.12132034355964 X_7_8
      + 1.58113883008419 X_7_9 + 1.58113883008419 X_7_10
      + 2.12132034355964 X_7_11 + 2.91547594742265 X_7_12
      + 2.54950975679639 X_7_13 + 2.54950975679639 X_7_14
      + 2.91547594742265 X_7_15 + 2.54950975679639 X_8_0
      + 1.58113883008419 X_8_1 + 0.707106781186548 X_8_2
      + 0.707106781186548 X_8_3 + 2.54950975679639 X_8_4
      + 1.58113883008419 X_8_5 + 0.707106781186548 X_8_6
      + 0.707106781186548 X_8_7 + 2.91547594742265 X_8_8
      + 2.12132034355964 X_8_9 + 1.58113883008419 X_8_10
      + 1.58113883008419 X_8_11 + 3.53553390593274 X_8_12
      + 2.91547594742265 X_8_13 + 2.54950975679639 X_8_14
      + 2.54950975679639 X_8_15 + 3.53553390593274 X_9_0
      + 2.54950975679639 X_9_1 + 1.58113883008419 X_9_2
      + 0.707106781186548 X_9_3 + 3.53553390593274 X_9_4
      + 2.54950975679639 X_9_5 + 1.58113883008419 X_9_6
      + 0.707106781186548 X_9_7 + 3.80788655293195 X_9_8
      + 2.91547594742265 X_9_9 + 2.12132034355964 X_9_10
      + 1.58113883008419 X_9_11 + 4.30116263352131 X_9_12
      + 3.53553390593274 X_9_13 + 2.91547594742265 X_9_14
      + 2.54950975679639 X_9_15 + 1.58113883008419 X_10_0
      + 2.12132034355964 X_10_1 + 2.91547594742265 X_10_2
      + 3.80788655293195 X_10_3 + 0.707106781186548 X_10_4
      + 1.58113883008419 X_10_5 + 2.54950975679639 X_10_6
      + 3.53553390593274 X_10_7 + 0.707106781186548 X_10_8
      + 1.58113883008419 X_10_9 + 2.54950975679639 X_10_10
      + 3.53553390593274 X_10_11 + 1.58113883008419 X_10_12
      + 2.12132034355964 X_10_13 + 2.91547594742265 X_10_14
      + 3.80788655293195 X_10_15 + 1.58113883008419 X_11_0
      + 1.58113883008419 X_11_1 + 2.12132034355964 X_11_2
      + 2.91547594742265 X_11_3 + 0.707106781186548 X_11_4
      + 0.707106781186548 X_11_5 + 1.58113883008419 X_11_6
      + 2.54950975679639 X_11_7 + 0.707106781186548 X_11_8
      + 0.707106781186548 X_11_9 + 1.58113883008419 X_11_10
      + 2.54950975679639 X_11_11 + 1.58113883008419 X_11_12
      + 1.58113883008419 X_11_13 + 2.12132034355964 X_11_14
      + 2.91547594742265 X_11_15 + 2.12132034355964 X_12_0
      + 1.58113883008419 X_12_1 + 1.58113883008419 X_12_2
      + 2.12132034355964 X_12_3 + 1.58113883008419 X_12_4
      + 0.707106781186548 X_12_5 + 0.707106781186548 X_12_6
      + 1.58113883008419 X_12_7 + 1.58113883008419 X_12_8
      + 0.707106781186548 X_12_9 + 0.707106781186548 X_12_10
      + 1.58113883008419 X_12_11 + 2.12132034355964 X_12_12
      + 1.58113883008419 X_12_13 + 1.58113883008419 X_12_14
      + 2.12132034355964 X_12_15 + 2.91547594742265 X_13_0
      + 2.12132034355964 X_13_1 + 1.58113883008419 X_13_2
      + 1.58113883008419 X_13_3 + 2.54950975679639 X_13_4
      + 1.58113883008419 X_13_5 + 0.707106781186548 X_13_6
      + 0.707106781186548 X_13_7 + 2.54950975679639 X_13_8
      + 1.58113883008419 X_13_9 + 0.707106781186548 X_13_10
      + 0.707106781186548 X_13_11 + 2.91547594742265 X_13_12
      + 2.12132034355964 X_13_13 + 1.58113883008419 X_13_14
      + 1.58113883008419 X_13_15 + 3.80788655293195 X_14_0
      + 2.91547594742265 X_14_1 + 2.12132034355964 X_14_2
      + 1.58113883008419 X_14_3 + 3.53553390593274 X_14_4
      + 2.54950975679639 X_14_5 + 1.58113883008419 X_14_6
      + 0.707106781186548 X_14_7 + 3.53553390593274 X_14_8
      + 2.54950975679639 X_14_9 + 1.58113883008419 X_14_10
      + 0.707106781186548 X_14_11 + 3.80788655293195 X_14_12
      + 2.91547594742265 X_14_13 + 2.12132034355964 X_14_14
      + 1.58113883008419 X_14_15 + 2.54950975679639 X_15_0
      + 2.91547594742265 X_15_1 + 3.53553390593274 X_15_2
      + 4.30116263352131 X_15_3 + 1.58113883008419 X_15_4
      + 2.12132034355964 X_15_5 + 2.91547594742265 X_15_6
      + 3.80788655293195 X_15_7 + 0.707106781186548 X_15_8
      + 1.58113883008419 X_15_9 + 2.54950975679639 X_15_10
      + 3.53553390593274 X_15_11 + 0.707106781186548 X_15_12
      + 1.58113883008419 X_15_13 + 2.54950975679639 X_15_14
      + 3.53553390593274 X_15_15 + 2.54950975679639 X_16_0
      + 2.54950975679639 X_16_1 + 2.91547594742265 X_16_2
      + 3.53553390593274 X_16_3 + 1.58113883008419 X_16_4
      + 1.58113883008419 X_16_5 + 2.12132034355964 X_16_6
      + 2.91547594742265 X_16_7 + 0.707106781186548 X_16_8
      + 0.707106781186548 X_16_9 + 1.58113883008419 X_16_10
      + 2.54950975679639 X_16_11 + 0.707106781186548 X_16_12
      + 0.707106781186548 X_16_13 + 1.58113883008419 X_16_14
      + 2.54950975679639 X_16_15 + 2.91547594742265 X_17_0
      + 2.54950975679639 X_17_1 + 2.54950975679639 X_17_2
      + 2.91547594742265 X_17_3 + 2.12132034355964 X_17_4
      + 1.58113883008419 X_17_5 + 1.58113883008419 X_17_6
      + 2.12132034355964 X_17_7 + 1.58113883008419 X_17_8
      + 0.707106781186548 X_17_9 + 0.707106781186548 X_17_10
      + 1.58113883008419 X_17_11 + 1.58113883008419 X_17_12
      + 0.707106781186548 X_17_13 + 0.707106781186548 X_17_14
      + 1.58113883008419 X_17_15 + 3.53553390593274 X_18_0
      + 2.91547594742265 X_18_1 + 2.54950975679639 X_18_2
      + 2.54950975679639 X_18_3 + 2.91547594742265 X_18_4
      + 2.12132034355964 X_18_5 + 1.58113883008419 X_18_6
      + 1.58113883008419 X_18_7 + 2.54950975679639 X_18_8
      + 1.58113883008419 X_18_9 + 0.707106781186548 X_18_10
      + 0.707106781186548 X_18_11 + 2.54950975679639 X_18_12
      + 1.58113883008419 X_18_13 + 0.707106781186548 X_18_14
      + 0.707106781186548 X_18_15 + 4.30116263352131 X_19_0
      + 3.53553390593274 X_19_1 + 2.91547594742265 X_19_2
      + 2.54950975679639 X_19_3 + 3.80788655293195 X_19_4
      + 2.91547594742265 X_19_5 + 2.12132034355964 X_19_6
      + 1.58113883008419 X_19_7 + 3.53553390593274 X_19_8
      + 2.54950975679639 X_19_9 + 1.58113883008419 X_19_10
      + 0.707106781186548 X_19_11 + 3.53553390593274 X_19_12
      + 2.54950975679639 X_19_13 + 1.58113883008419 X_19_14
      + 0.707106781186548 X_19_15 + 3.53553390593274 X_20_0
      + 3.80788655293195 X_20_1 + 4.30116263352131 X_20_2
      + 4.94974746830583 X_20_3 + 2.54950975679639 X_20_4
      + 2.91547594742265 X_20_5 + 3.53553390593274 X_20_6
      + 4.30116263352131 X_20_7 + 1.58113883008419 X_20_8
      + 2.12132034355964 X_20_9 + 2.91547594742265 X_20_10
      + 3.80788655293195 X_20_11 + 0.707106781186548 X_20_12
      + 1.58113883008419 X_20_13 + 2.54950975679639 X_20_14
      + 3.53553390593274 X_20_15 + 3.53553390593274 X_21_0
      + 3.53553390593274 X_21_1 + 3.80788655293195 X_21_2
      + 4.30116263352131 X_21_3 + 2.54950975679639 X_21_4
      + 2.54950975679639 X_21_5 + 2.91547594742265 X_21_6
      + 3.53553390593274 X_21_7 + 1.58113883008419 X_21_8
      + 1.58113883008419 X_21_9 + 2.12132034355964 X_21_10
      + 2.91547594742265 X_21_11 + 0.707106781186548 X_21_12
      + 0.707106781186548 X_21_13 + 1.58113883008419 X_21_14
      + 2.54950975679639 X_21_15 + 3.80788655293195 X_22_0
      + 3.53553390593274 X_22_1 + 3.53553390593274 X_22_2
      + 3.80788655293195 X_22_3 + 2.91547594742265 X_22_4
      + 2.54950975679639 X_22_5 + 2.54950975679639 X_22_6
      + 2.91547594742265 X_22_7 + 2.12132034355964 X_22_8
      + 1.58113883008419 X_22_9 + 1.58113883008419 X_22_10
      + 2.12132034355964 X_22_11 + 1.58113883008419 X_22_12
      + 0.707106781186548 X_22_13 + 0.707106781186548 X_22_14
      + 1.58113883008419 X_22_15 + 4.30116263352131 X_23_0
      + 3.80788655293195 X_23_1 + 3.53553390593274 X_23_2
      + 3.53553390593274 X_23_3 + 3.53553390593274 X_23_4
      + 2.91547594742265 X_23_5 + 2.54950975679639 X_23_6
      + 2.54950975679639 X_23_7 + 2.91547594742265 X_23_8
      + 2.12132034355964 X_23_9 + 1.58113883008419 X_23_10
      + 1.58113883008419 X_23_11 + 2.54950975679639 X_23_12
      + 1.58113883008419 X_23_13 + 0.707106781186548 X_23_14
      + 0.707106781186548 X_23_15 + 4.94974746830583 X_24_0
      + 4.30116263352131 X_24_1 + 3.80788655293195 X_24_2
      + 3.53553390593274 X_24_3 + 4.30116263352131 X_24_4
      + 3.53553390593274 X_24_5 + 2.91547594742265 X_24_6
      + 2.54950975679639 X_24_7 + 3.80788655293195 X_24_8
      + 2.91547594742265 X_24_9 + 2.12132034355964 X_24_10
      + 1.58113883008419 X_24_11 + 3.53553390593274 X_24_12
      + 2.54950975679639 X_24_13 + 1.58113883008419 X_24_14
      + 0.707106781186548 X_24_15 + 4.40878311715735 Z_0 + 3.59419369659899 Z_1
      + 1.15125645570632 Z_2 + 4.56619896917624 Z_3 + 5.02331088040705 Z_4
      + 6.49067866590168 Z_5 + 1.99746169711966 Z_6 + 4.098308898425 Z_7
      + 9.92660622277721 Z_8 + 5.68882259943349 Z_9 + 2.14648324574536 Z_10
      + 9.64948088006761 Z_11 + 8.76593610950577 Z_12 + 9.32719398286599 Z_13
      + 2.14737656565174 Z_14 + 5.49485854371502 Z_15
Subject To
 c1:   X_0_0 + X_0_1 + X_0_2 + X_0_3 + X_0_4 + X_0_5 + X_0_6 + X_0_7 + X_0_8
       + X_0_9 + X_0_10 + X_0_11 + X_0_12 + X_0_13 + X_0_14 + X_0_15  = 1
 c2:   X_1_0 + X_1_1 + X_1_2 + X_1_3 + X_1_4 + X_1_5 + X_1_6 + X_1_7 + X_1_8
       + X_1_9 + X_1_10 + X_1_11 + X_1_12 + X_1_13 + X_1_14 + X_1_15  = 1
 c3:   X_2_0 + X_2_1 + X_2_2 + X_2_3 + X_2_4 + X_2_5 + X_2_6 + X_2_7 + X_2_8
       + X_2_9 + X_2_10 + X_2_11 + X_2_12 + X_2_13 + X_2_14 + X_2_15  = 1
 c4:   X_3_0 + X_3_1 + X_3_2 + X_3_3 + X_3_4 + X_3_5 + X_3_6 + X_3_7 + X_3_8
       + X_3_9 + X_3_10 + X_3_11 + X_3_12 + X_3_13 + X_3_14 + X_3_15  = 1
 c5:   X_4_0 + X_4_1 + X_4_2 + X_4_3 + X_4_4 + X_4_5 + X_4_6 + X_4_7 + X_4_8
       + X_4_9 + X_4_10 + X_4_11 + X_4_12 + X_4_13 + X_4_14 + X_4_15  = 1
 c6:   X_5_0 + X_5_1 + X_5_2 + X_5_3 + X_5_4 + X_5_5 + X_5_6 + X_5_7 + X_5_8
       + X_5_9 + X_5_10 + X_5_11 + X_5_12 + X_5_13 + X_5_14 + X_5_15  = 1
 c7:   X_6_0 + X_6_1 + X_6_2 + X_6_3 + X_6_4 + X_6_5 + X_6_6 + X_6_7 + X_6_8
       + X_6_9 + X_6_10 + X_6_11 + X_6_12 + X_6_13 + X_6_14 + X_6_15  = 1
 c8:   X_7_0 + X_7_1 + X_7_2 + X_7_3 + X_7_4 + X_7_5 + X_7_6 + X_7_7 + X_7_8
       + X_7_9 + X_7_10 + X_7_11 + X_7_12 + X_7_13 + X_7_14 + X_7_15  = 1
 c9:   X_8_0 + X_8_1 + X_8_2 + X_8_3 + X_8_4 + X_8_5 + X_8_6 + X_8_7 + X_8_8
       + X_8_9 + X_8_10 + X_8_11 + X_8_12 + X_8_13 + X_8_14 + X_8_15  = 1
 c10:  X_9_0 + X_9_1 + X_9_2 + X_9_3 + X_9_4 + X_9_5 + X_9_6 + X_9_7 + X_9_8
       + X_9_9 + X_9_10 + X_9_11 + X_9_12 + X_9_13 + X_9_14 + X_9_15  = 1
 c11:  X_10_0 + X_10_1 + X_10_2 + X_10_3 + X_10_4 + X_10_5 + X_10_6 + X_10_7
       + X_10_8 + X_10_9 + X_10_10 + X_10_11 + X_10_12 + X_10_13 + X_10_14
       + X_10_15  = 1
 c12:  X_11_0 + X_11_1 + X_11_2 + X_11_3 + X_11_4 + X_11_5 + X_11_6 + X_11_7
       + X_11_8 + X_11_9 + X_11_10 + X_11_11 + X_11_12 + X_11_13 + X_11_14
       + X_11_15  = 1
 c13:  X_12_0 + X_12_1 + X_12_2 + X_12_3 + X_12_4 + X_12_5 + X_12_6 + X_12_7
       + X_12_8 + X_12_9 + X_12_10 + X_12_11 + X_12_12 + X_12_13 + X_12_14
       + X_12_15  = 1
 c14:  X_13_0 + X_13_1 + X_13_2 + X_13_3 + X_13_4 + X_13_5 + X_13_6 + X_13_7
       + X_13_8 + X_13_9 + X_13_10 + X_13_11 + X_13_12 + X_13_13 + X_13_14
       + X_13_15  = 1
 c15:  X_14_0 + X_14_1 + X_14_2 + X_14_3 + X_14_4 + X_14_5 + X_14_6 + X_14_7
       + X_14_8 + X_14_9 + X_14_10 + X_14_11 + X_14_12 + X_14_13 + X_14_14
       + X_14_15  = 1
 c16:  X_15_0 + X_15_1 + X_15_2 + X_15_3 + X_15_4 + X_15_5 + X_15_6 + X_15_7
       + X_15_8 + X_15_9 + X_15_10 + X_15_11 + X_15_12 + X_15_13 + X_15_14
       + X_15_15  = 1
 c17:  X_16_0 + X_16_1 + X_16_2 + X_16_3 + X_16_4 + X_16_5 + X_16_6 + X_16_7
       + X_16_8 + X_16_9 + X_16_10 + X_16_11 + X_16_12 + X_16_13 + X_16_14
       + X_16_15  = 1
 c18:  X_17_0 + X_17_1 + X_17_2 + X_17_3 + X_17_4 + X_17_5 + X_17_6 + X_17_7
       + X_17_8 + X_17_9 + X_17_10 + X_17_11 + X_17_12 + X_17_13 + X_17_14
       + X_17_15  = 1
 c19:  X_18_0 + X_18_1 + X_18_2 + X_18_3 + X_18_4 + X_18_5 + X_18_6 + X_18_7
       + X_18_8 + X_18_9 + X_18_10 + X_18_11 + X_18_12 + X_18_13 + X_18_14
       + X_18_15  = 1
 c20:  X_19_0 + X_19_1 + X_19_2 + X_19_3 + X_19_4 + X_19_5 + X_19_6 + X_19_7
       + X_19_8 + X_19_9 + X_19_10 + X_19_11 + X_19_12 + X_19_13 + X_19_14
       + X_19_15  = 1
 c21:  X_20_0 + X_20_1 + X_20_2 + X_20_3 + X_20_4 + X_20_5 + X_20_6 + X_20_7
       + X_20_8 + X_20_9 + X_20_10 + X_20_11 + X_20_12 + X_20_13 + X_20_14
       + X_20_15  = 1
 c22:  X_21_0 + X_21_1 + X_21_2 + X_21_3 + X_21_4 + X_21_5 + X_21_6 + X_21_7
       + X_21_8 + X_21_9 + X_21_10 + X_21_11 + X_21_12 + X_21_13 + X_21_14
       + X_21_15  = 1
 c23:  X_22_0 + X_22_1 + X_22_2 + X_22_3 + X_22_4 + X_22_5 + X_22_6 + X_22_7
       + X_22_8 + X_22_9 + X_22_10 + X_22_11 + X_22_12 + X_22_13 + X_22_14
       + X_22_15  = 1
 c24:  X_23_0 + X_23_1 + X_23_2 + X_23_3 + X_23_4 + X_23_5 + X_23_6 + X_23_7
       + X_23_8 + X_23_9 + X_23_10 + X_23_11 + X_23_12 + X_23_13 + X_23_14
       + X_23_15  = 1
 c25:  X_24_0 + X_24_1 + X_24_2 + X_24_3 + X_24_4 + X_24_5 + X_24_6 + X_24_7
       + X_24_8 + X_24_9 + X_24_10 + X_24_11 + X_24_12 + X_24_13 + X_24_14
       + X_24_15  = 1
 c26:  X_0_0 - Z_0 <= 0
 c27:  X_0_1 - Z_1 <= 0
 c28:  X_0_2 - Z_2 <= 0
 c29:  X_0_3 - Z_3 <= 0
 c30:  X_0_4 - Z_4 <= 0
 c31:  X_0_5 - Z_5 <= 0
 c32:  X_0_6 - Z_6 <= 0
 c33:  X_0_7 - Z_7 <= 0
 c34:  X_0_8 - Z_8 <= 0
 c35:  X_0_9 - Z_9 <= 0
 c36:  X_0_10 - Z_10 <= 0
 c37:  X_0_11 - Z_11 <= 0
 c38:  X_0_12 - Z_12 <= 0
 c39:  X_0_13 - Z_13 <= 0
 c40:  X_0_14 - Z_14 <= 0
 c41:  X_0_15 - Z_15 <= 0
 c42:  X_1_0 - Z_0 <= 0
 c43:  X_1_1 - Z_1 <= 0
 c44:  X_1_2 - Z_2 <= 0
 c45:  X_1_3 - Z_3 <= 0
 c46:  X_1_4 - Z_4 <= 0
 c47:  X_1_5 - Z_5 <= 0
 c48:  X_1_6 - Z_6 <= 0
 c49:  X_1_7 - Z_7 <= 0
 c50:  X_1_8 - Z_8 <= 0
 c51:  X_1_9 - Z_9 <= 0
 c52:  X_1_10 - Z_10 <= 0
 c53:  X_1_11 - Z_11 <= 0
 c54:  X_1_12 - Z_12 <= 0
 c55:  X_1_13 - Z_13 <= 0
 c56:  X_1_14 - Z_14 <= 0
 c57:  X_1_15 - Z_15 <= 0
 c58:  X_2_0 - Z_0 <= 0
 c59:  X_2_1 - Z_1 <= 0
 c60:  X_2_2 - Z_2 <= 0
 c61:  X_2_3 - Z_3 <= 0
 c62:  X_2_4 - Z_4 <= 0
 c63:  X_2_5 - Z_5 <= 0
 c64:  X_2_6 - Z_6 <= 0
 c65:  X_2_7 - Z_7 <= 0
 c66:  X_2_8 - Z_8 <= 0
 c67:  X_2_9 - Z_9 <= 0
 c68:  X_2_10 - Z_10 <= 0
 c69:  X_2_11 - Z_11 <= 0
 c70:  X_2_12 - Z_12 <= 0
 c71:  X_2_13 - Z_13 <= 0
 c72:  X_2_14 - Z_14 <= 0
 c73:  X_2_15 - Z_15 <= 0
 c74:  X_3_0 - Z_0 <= 0
 c75:  X_3_1 - Z_1 <= 0
 c76:  X_3_2 - Z_2 <= 0
 c77:  X_3_3 - Z_3 <= 0
 c78:  X_3_4 - Z_4 <= 0
 c79:  X_3_5 - Z_5 <= 0
 c80:  X_3_6 - Z_6 <= 0
 c81:  X_3_7 - Z_7 <= 0
 c82:  X_3_8 - Z_8 <= 0
 c83:  X_3_9 - Z_9 <= 0
 c84:  X_3_10 - Z_10 <= 0
 c85:  X_3_11 - Z_11 <= 0
 c86:  X_3_12 - Z_12 <= 0
 c87:  X_3_13 - Z_13 <= 0
 c88:  X_3_14 - Z_14 <= 0
 c89:  X_3_15 - Z_15 <= 0
 c90:  X_4_0 - Z_0 <= 0
 c91:  X_4_1 - Z_1 <= 0
 c92:  X_4_2 - Z_2 <= 0
 c93:  X_4_3 - Z_3 <= 0
 c94:  X_4_4 - Z_4 <= 0
 c95:  X_4_5 - Z_5 <= 0
 c96:  X_4_6 - Z_6 <= 0
 c97:  X_4_7 - Z_7 <= 0
 c98:  X_4_8 - Z_8 <= 0
 c99:  X_4_9 - Z_9 <= 0
 c100: X_4_10 - Z_10 <= 0
 c101: X_4_11 - Z_11 <= 0
 c102: X_4_12 - Z_12 <= 0
 c103: X_4_13 - Z_13 <= 0
 c104: X_4_14 - Z_14 <= 0
 c105: X_4_15 - Z_15 <= 0
 c106: X_5_0 - Z_0 <= 0
 c107: X_5_1 - Z_1 <= 0
 c108: X_5_2 - Z_2 <= 0
 c109: X_5_3 - Z_3 <= 0
 c110: X_5_4 - Z_4 <= 0
 c111: X_5_5 - Z_5 <= 0
 c112: X_5_6 - Z_6 <= 0
 c113: X_5_7 - Z_7 <= 0
 c114: X_5_8 - Z_8 <= 0
 c115: X_5_9 - Z_9 <= 0
 c116: X_5_10 - Z_10 <= 0
 c117: X_5_11 - Z_11 <= 0
 c118: X_5_12 - Z_12 <= 0
 c119: X_5_13 - Z_13 <= 0
 c120: X_5_14 - Z_14 <= 0
 c121: X_5_15 - Z_15 <= 0
 c122: X_6_0 - Z_0 <= 0
 c123: X_6_1 - Z_1 <= 0
 c124: X_6_2 - Z_2 <= 0
 c125: X_6_3 - Z_3 <= 0
 c126: X_6_4 - Z_4 <= 0
 c127: X_6_5 - Z_5 <= 0
 c128: X_6_6 - Z_6 <= 0
 c129: X_6_7 - Z_7 <= 0
 c130: X_6_8 - Z_8 <= 0
 c131: X_6_9 - Z_9 <= 0
 c132: X_6_10 - Z_10 <= 0
 c133: X_6_11 - Z_11 <= 0
 c134: X_6_12 - Z_12 <= 0
 c135: X_6_13 - Z_13 <= 0
 c136: X_6_14 - Z_14 <= 0
 c137: X_6_15 - Z_15 <= 0
 c138: X_7_0 - Z_0 <= 0
 c139: X_7_1 - Z_1 <= 0
 c140: X_7_2 - Z_2 <= 0
 c141: X_7_3 - Z_3 <= 0
 c142: X_7_4 - Z_4 <= 0
 c143: X_7_5 - Z_5 <= 0
 c144: X_7_6 - Z_6 <= 0
 c145: X_7_7 - Z_7 <= 0
 c146: X_7_8 - Z_8 <= 0
 c147: X_7_9 - Z_9 <= 0
 c148: X_7_10 - Z_10 <= 0
 c149: X_7_11 - Z_11 <= 0
 c150: X_7_12 - Z_12 <= 0
 c151: X_7_13 - Z_13 <= 0
 c152: X_7_14 - Z_14 <= 0
 c153: X_7_15 - Z_15 <= 0
 c154: X_8_0 - Z_0 <= 0
 c155: X_8_1 - Z_1 <= 0
 c156: X_8_2 - Z_2 <= 0
 c157: X_8_3 - Z_3 <= 0
 c158: X_8_4 - Z_4 <= 0
 c159: X_8_5 - Z_5 <= 0
 c160: X_8_6 - Z_6 <= 0
 c161: X_8_7 - Z_7 <= 0
 c162: X_8_8 - Z_8 <= 0
 c163: X_8_9 - Z_9 <= 0
 c164: X_8_10 - Z_10 <= 0
 c165: X_8_11 - Z_11 <= 0
 c166: X_8_12 - Z_12 <= 0
 c167: X_8_13 - Z_13 <= 0
 c168: X_8_14 - Z_14 <= 0
 c169: X_8_15 - Z_15 <= 0
 c170: X_9_0 - Z_0 <= 0
 c171: X_9_1 - Z_1 <= 0
 c172: X_9_2 - Z_2 <= 0
 c173: X_9_3 - Z_3 <= 0
 c174: X_9_4 - Z_4 <= 0
 c175: X_9_5 - Z_5 <= 0
 c176: X_9_6 - Z_6 <= 0
 c177: X_9_7 - Z_7 <= 0
 c178: X_9_8 - Z_8 <= 0
 c179: X_9_9 - Z_9 <= 0
 c180: X_9_10 - Z_10 <= 0
 c181: X_9_11 - Z_11 <= 0
 c182: X_9_12 - Z_12 <= 0
 c183: X_9_13 - Z_13 <= 0
 c184: X_9_14 - Z_14 <= 0
 c185: X_9_15 - Z_15 <= 0
 c186: X_10_0 - Z_0 <= 0
 c187: X_10_1 - Z_1 <= 0
 c188: X_10_2 - Z_2 <= 0
 c189: X_10_3 - Z_3 <= 0
 c190: X_10_4 - Z_4 <= 0
 c191: X_10_5 - Z_5 <= 0
 c192: X_10_6 - Z_6 <= 0
 c193: X_10_7 - Z_7 <= 0
 c194: X_10_8 - Z_8 <= 0
 c195: X_10_9 - Z_9 <= 0
 c196: X_10_10 - Z_10 <= 0
 c197: X_10_11 - Z_11 <= 0
 c198: X_10_12 - Z_12 <= 0
 c199: X_10_13 - Z_13 <= 0
 c200: X_10_14 - Z_14 <= 0
 c201: X_10_15 - Z_15 <= 0
 c202: X_11_0 - Z_0 <= 0
 c203: X_11_1 - Z_1 <= 0
 c204: X_11_2 - Z_2 <= 0
 c205: X_11_3 - Z_3 <= 0
 c206: X_11_4 - Z_4 <= 0
 c207: X_11_5 - Z_5 <= 0
 c208: X_11_6 - Z_6 <= 0
 c209: X_11_7 - Z_7 <= 0
 c210: X_11_8 - Z_8 <= 0
 c211: X_11_9 - Z_9 <= 0
 c212: X_11_10 - Z_10 <= 0
 c213: X_11_11 - Z_11 <= 0
 c214: X_11_12 - Z_12 <= 0
 c215: X_11_13 - Z_13 <= 0
 c216: X_11_14 - Z_14 <= 0
 c217: X_11_15 - Z_15 <= 0
 c218: X_12_0 - Z_0 <= 0
 c219: X_12_1 - Z_1 <= 0
 c220: X_12_2 - Z_2 <= 0
 c221: X_12_3 - Z_3 <= 0
 c222: X_12_4 - Z_4 <= 0
 c223: X_12_5 - Z_5 <= 0
 c224: X_12_6 - Z_6 <= 0
 c225: X_12_7 - Z_7 <= 0
 c226: X_12_8 - Z_8 <= 0
 c227: X_12_9 - Z_9 <= 0
 c228: X_12_10 - Z_10 <= 0
 c229: X_12_11 - Z_11 <= 0
 c230: X_12_12 - Z_12 <= 0
 c231: X_12_13 - Z_13 <= 0
 c232: X_12_14 - Z_14 <= 0
 c233: X_12_15 - Z_15 <= 0
 c234: X_13_0 - Z_0 <= 0
 c235: X_13_1 - Z_1 <= 0
 c236: X_13_2 - Z_2 <= 0
 c237: X_13_3 - Z_3 <= 0
 c238: X_13_4 - Z_4 <= 0
 c239: X_13_5 - Z_5 <= 0
 c240: X_13_6 - Z_6 <= 0
 c241: X_13_7 - Z_7 <= 0
 c242: X_13_8 - Z_8 <= 0
 c243: X_13_9 - Z_9 <= 0
 c244: X_13_10 - Z_10 <= 0
 c245: X_13_11 - Z_11 <= 0
 c246: X_13_12 - Z_12 <= 0
 c247: X_13_13 - Z_13 <= 0
 c248: X_13_14 - Z_14 <= 0
 c249: X_13_15 - Z_15 <= 0
 c250: X_14_0 - Z_0 <= 0
 c251: X_14_1 - Z_1 <= 0
 c252: X_14_2 - Z_2 <= 0
 c253: X_14_3 - Z_3 <= 0
 c254: X_14_4 - Z_4 <= 0
 c255: X_14_5 - Z_5 <= 0
 c256: X_14_6 - Z_6 <= 0
 c257: X_14_7 - Z_7 <= 0
 c258: X_14_8 - Z_8 <= 0
 c259: X_14_9 - Z_9 <= 0
 c260: X_14_10 - Z_10 <= 0
 c261: X_14_11 - Z_11 <= 0
 c262: X_14_12 - Z_12 <= 0
 c263: X_14_13 - Z_13 <= 0
 c264: X_14_14 - Z_14 <= 0
 c265: X_14_15 - Z_15 <= 0
 c266: X_15_0 - Z_0 <= 0
 c267: X_15_1 - Z_1 <= 0
 c268: X_15_2 - Z_2 <= 0
 c269: X_15_3 - Z_3 <= 0
 c270: X_15_4 - Z_4 <= 0
 c271: X_15_5 - Z_5 <= 0
 c272: X_15_6 - Z_6 <= 0
 c273: X_15_7 - Z_7 <= 0
 c274: X_15_8 - Z_8 <= 0
 c275: X_15_9 - Z_9 <= 0
 c276: X_15_10 - Z_10 <= 0
 c277: X_15_11 - Z_11 <= 0
 c278: X_15_12 - Z_12 <= 0
 c279: X_15_13 - Z_13 <= 0
 c280: X_15_14 - Z_14 <= 0
 c281: X_15_15 - Z_15 <= 0
 c282: X_16_0 - Z_0 <= 0
 c283: X_16_1 - Z_1 <= 0
 c284: X_16_2 - Z_2 <= 0
 c285: X_16_3 - Z_3 <= 0
 c286: X_16_4 - Z_4 <= 0
 c287: X_16_5 - Z_5 <= 0
 c288: X_16_6 - Z_6 <= 0
 c289: X_16_7 - Z_7 <= 0
 c290: X_16_8 - Z_8 <= 0
 c291: X_16_9 - Z_9 <= 0
 c292: X_16_10 - Z_10 <= 0
 c293: X_16_11 - Z_11 <= 0
 c294: X_16_12 - Z_12 <= 0
 c295: X_16_13 - Z_13 <= 0
 c296: X_16_14 - Z_14 <= 0
 c297: X_16_15 - Z_15 <= 0
 c298: X_17_0 - Z_0 <= 0
 c299: X_17_1 - Z_1 <= 0
 c300: X_17_2 - Z_2 <= 0
 c301: X_17_3 - Z_3 <= 0
 c302: X_17_4 - Z_4 <= 0
 c303: X_17_5 - Z_5 <= 0
 c304: X_17_6 - Z_6 <= 0
 c305: X_17_7 - Z_7 <= 0
 c306: X_17_8 - Z_8 <= 0
 c307: X_17_9 - Z_9 <= 0
 c308: X_17_10 - Z_10 <= 0
 c309: X_17_11 - Z_11 <= 0
 c310: X_17_12 - Z_12 <= 0
 c311: X_17_13 - Z_13 <= 0
 c312: X_17_14 - Z_14 <= 0
 c313: X_17_15 - Z_15 <= 0
 c314: X_18_0 - Z_0 <= 0
 c315: X_18_1 - Z_1 <= 0
 c316: X_18_2 - Z_2 <= 0
 c317: X_18_3 - Z_3 <= 0
 c318: X_18_4 - Z_4 <= 0
 c319: X_18_5 - Z_5 <= 0
 c320: X_18_6 - Z_6 <= 0
 c321: X_18_7 - Z_7 <= 0
 c322: X_18_8 - Z_8 <= 0
 c323: X_18_9 - Z_9 <= 0
 c324: X_18_10 - Z_10 <= 0
 c325: X_18_11 - Z_11 <= 0
 c326: X_18_12 - Z_12 <= 0
 c327: X_18_13 - Z_13 <= 0
 c328: X_18_14 - Z_14 <= 0
 c329: X_18_15 - Z_15 <= 0
 c330: X_19_0 - Z_0 <= 0
 c331: X_19_1 - Z_1 <= 0
 c332: X_19_2 - Z_2 <= 0
 c333: X_19_3 - Z_3 <= 0
 c334: X_19_4 - Z_4 <= 0
 c335: X_19_5 - Z_5 <= 0
 c336: X_19_6 - Z_6 <= 0
 c337: X_19_7 - Z_7 <= 0
 c338: X_19_8 - Z_8 <= 0
 c339: X_19_9 - Z_9 <= 0
 c340: X_19_10 - Z_10 <= 0
 c341: X_19_11 - Z_11 <= 0
 c342: X_19_12 - Z_12 <= 0
 c343: X_19_13 - Z_13 <= 0
 c344: X_19_14 - Z_14 <= 0
 c345: X_19_15 - Z_15 <= 0
 c346: X_20_0 - Z_0 <= 0
 c347: X_20_1 - Z_1 <= 0
 c348: X_20_2 - Z_2 <= 0
 c349: X_20_3 - Z_3 <= 0
 c350: X_20_4 - Z_4 <= 0
 c351: X_20_5 - Z_5 <= 0
 c352: X_20_6 - Z_6 <= 0
 c353: X_20_7 - Z_7 <= 0
 c354: X_20_8 - Z_8 <= 0
 c355: X_20_9 - Z_9 <= 0
 c356: X_20_10 - Z_10 <= 0
 c357: X_20_11 - Z_11 <= 0
 c358: X_20_12 - Z_12 <= 0
 c359: X_20_13 - Z_13 <= 0
 c360: X_20_14 - Z_14 <= 0
 c361: X_20_15 - Z_15 <= 0
 c362: X_21_0 - Z_0 <= 0
 c363: X_21_1 - Z_1 <= 0
 c364: X_21_2 - Z_2 <= 0
 c365: X_21_3 - Z_3 <= 0
 c366: X_21_4 - Z_4 <= 0
 c367: X_21_5 - Z_5 <= 0
 c368: X_21_6 - Z_6 <= 0
 c369: X_21_7 - Z_7 <= 0
 c370: X_21_8 - Z_8 <= 0
 c371: X_21_9 - Z_9 <= 0
 c372: X_21_10 - Z_10 <= 0
 c373: X_21_11 - Z_11 <= 0
 c374: X_21_12 - Z_12 <= 0
 c375: X_21_13 - Z_13 <= 0
 c376: X_21_14 - Z_14 <= 0
 c377: X_21_15 - Z_15 <= 0
 c378: X_22_0 - Z_0 <= 0
 c379: X_22_1 - Z_1 <= 0
 c380: X_22_2 - Z_2 <= 0
 c381: X_22_3 - Z_3 <= 0
 c382: X_22_4 - Z_4 <= 0
 c383: X_22_5 - Z_5 <= 0
 c384: X_22_6 - Z_6 <= 0
 c385: X_22_7 - Z_7 <= 0
 c386: X_22_8 - Z_8 <= 0
 c387: X_22_9 - Z_9 <= 0
 c388: X_22_10 - Z_10 <= 0
 c389: X_22_11 - Z_11 <= 0
 c390: X_22_12 - Z_12 <= 0
 c391: X_22_13 - Z_13 <= 0
 c392: X_22_14 - Z_14 <= 0
 c393: X_22_15 - Z_15 <= 0
 c394: X_23_0 - Z_0 <= 0
 c395: X_23_1 - Z_1 <= 0
 c396: X_23_2 - Z_2 <= 0
 c397: X_23_3 - Z_3 <= 0
 c398: X_23_4 - Z_4 <= 0
 c399: X_23_5 - Z_5 <= 0
 c400: X_23_6 - Z_6 <= 0
 c401: X_23_7 - Z_7 <= 0
 c402: X_23_8 - Z_8 <= 0
 c403: X_23_9 - Z_9 <= 0
 c404: X_23_10 - Z_10 <= 0
 c405: X_23_11 - Z_11 <= 0
 c406: X_23_12 - Z_12 <= 0
 c407: X_23_13 - Z_13 <= 0
 c408: X_23_14 - Z_14 <= 0
 c409: X_23_15 - Z_15 <= 0
 c410: X_24_0 - Z_0 <= 0
 c411: X_24_1 - Z_1 <= 0
 c412: X_24_2 - Z_2 <= 0
 c413: X_24_3 - Z_3 <= 0
 c414: X_24_4 - Z_4 <= 0
 c415: X_24_5 - Z_5 <= 0
 c416: X_24_6 - Z_6 <= 0
 c417: X_24_7 - Z_7 <= 0
 c418: X_24_8 - Z_8 <= 0
 c419: X_24_9 - Z_9 <= 0
 c420: X_24_10 - Z_10 <= 0
 c421: X_24_11 - Z_11 <= 0
 c422: X_24_12 - Z_12 <= 0
 c423: X_24_13 - Z_13 <= 0
 c424: X_24_14 - Z_14 <= 0
 c425: X_24_15 - Z_15 <= 0
Bounds
 0 <= X_0_0 <= 1
 0 <= X_0_1 <= 1
 0 <= X_0_2 <= 1
 0 <= X_0_3 <= 1
 0 <= X_0_4 <= 1
 0 <= X_0_5 <= 1
 0 <= X_0_6 <= 1
 0 <= X_0_7 <= 1
 0 <= X_0_8 <= 1
 0 <= X_0_9 <= 1
 0 <= X_0_10 <= 1
 0 <= X_0_11 <= 1
 0 <= X_0_12 <= 1
 0 <= X_0_13 <= 1
 0 <= X_0_14 <= 1
 0 <= X_0_15 <= 1
 0 <= X_1_0 <= 1
 0 <= X_1_1 <= 1
 0 <= X_1_2 <= 1
 0 <= X_1_3 <= 1
 0 <= X_1_4 <= 1
 0 <= X_1_5 <= 1
 0 <= X_1_6 <= 1
 0 <= X_1_7 <= 1
 0 <= X_1_8 <= 1
 0 <= X_1_9 <= 1
 0 <= X_1_10 <= 1
 0 <= X_1_11 <= 1
 0 <= X_1_12 <= 1
 0 <= X_1_13 <= 1
 0 <= X_1_14 <= 1
 0 <= X_1_15 <= 1
 0 <= X_2_0 <= 1
 0 <= X_2_1 <= 1
 0 <= X_2_2 <= 1
 0 <= X_2_3 <= 1
 0 <= X_2_4 <= 1
 0 <= X_2_5 <= 1
 0 <= X_2_6 <= 1
 0 <= X_2_7 <= 1
 0 <= X_2_8 <= 1
 0 <= X_2_9 <= 1
 0 <= X_2_10 <= 1
 0 <= X_2_11 <= 1
 0 <= X_2_12 <= 1
 0 <= X_2_13 <= 1
 0 <= X_2_14 <= 1
 0 <= X_2_15 <= 1
 0 <= X_3_0 <= 1
 0 <= X_3_1 <= 1
 0 <= X_3_2 <= 1
 0 <= X_3_3 <= 1
 0 <= X_3_4 <= 1
 0 <= X_3_5 <= 1
 0 <= X_3_6 <= 1
 0 <= X_3_7 <= 1
 0 <= X_3_8 <= 1
 0 <= X_3_9 <= 1
 0 <= X_3_10 <= 1
 0 <= X_3_11 <= 1
 0 <= X_3_12 <= 1
 0 <= X_3_13 <= 1
 0 <= X_3_14 <= 1
 0 <= X_3_15 <= 1
 0 <= X_4_0 <= 1
 0 <= X_4_1 <= 1
 0 <= X_4_2 <= 1
 0 <= X_4_3 <= 1
 0 <= X_4_4 <= 1
 0 <= X_4_5 <= 1
 0 <= X_4_6 <= 1
 0 <= X_4_7 <= 1
 0 <= X_4_8 <= 1
 0 <= X_4_9 <= 1
 0 <= X_4_10 <= 1
 0 <= X_4_11 <= 1
 0 <= X_4_12 <= 1
 0 <= X_4_13 <= 1
 0 <= X_4_14 <= 1
 0 <= X_4_15 <= 1
 0 <= X_5_0 <= 1
 0 <= X_5_1 <= 1
 0 <= X_5_2 <= 1
 0 <= X_5_3 <= 1
 0 <= X_5_4 <= 1
 0 <= X_5_5 <= 1
 0 <= X_5_6 <= 1
 0 <= X_5_7 <= 1
 0 <= X_5_8 <= 1
 0 <= X_5_9 <= 1
 0 <= X_5_10 <= 1
 0 <= X_5_11 <= 1
 0 <= X_5_12 <= 1
 0 <= X_5_13 <= 1
 0 <= X_5_14 <= 1
 0 <= X_5_15 <= 1
 0 <= X_6_0 <= 1
 0 <= X_6_1 <= 1
 0 <= X_6_2 <= 1
 0 <= X_6_3 <= 1
 0 <= X_6_4 <= 1
 0 <= X_6_5 <= 1
 0 <= X_6_6 <= 1
 0 <= X_6_7 <= 1
 0 <= X_6_8 <= 1
 0 <= X_6_9 <= 1
 0 <= X_6_10 <= 1
 0 <= X_6_11 <= 1
 0 <= X_6_12 <= 1
 0 <= X_6_13 <= 1
 0 <= X_6_14 <= 1
 0 <= X_6_15 <= 1
 0 <= X_7_0 <= 1
 0 <= X_7_1 <= 1
 0 <= X_7_2 <= 1
 0 <= X_7_3 <= 1
 0 <= X_7_4 <= 1
 0 <= X_7_5 <= 1
 0 <= X_7_6 <= 1
 0 <= X_7_7 <= 1
 0 <= X_7_8 <= 1
 0 <= X_7_9 <= 1
 0 <= X_7_10 <= 1
 0 <= X_7_11 <= 1
 0 <= X_7_12 <= 1
 0 <= X_7_13 <= 1
 0 <= X_7_14 <= 1
 0 <= X_7_15 <= 1
 0 <= X_8_0 <= 1
 0 <= X_8_1 <= 1
 0 <= X_8_2 <= 1
 0 <= X_8_3 <= 1
 0 <= X_8_4 <= 1
 0 <= X_8_5 <= 1
 0 <= X_8_6 <= 1
 0 <= X_8_7 <= 1
 0 <= X_8_8 <= 1
 0 <= X_8_9 <= 1
 0 <= X_8_10 <= 1
 0 <= X_8_11 <= 1
 0 <= X_8_12 <= 1
 0 <= X_8_13 <= 1
 0 <= X_8_14 <= 1
 0 <= X_8_15 <= 1
 0 <= X_9_0 <= 1
 0 <= X_9_1 <= 1
 0 <= X_9_2 <= 1
 0 <= X_9_3 <= 1
 0 <= X_9_4 <= 1
 0 <= X_9_5 <= 1
 0 <= X_9_6 <= 1
 0 <= X_9_7 <= 1
 0 <= X_9_8 <= 1
 0 <= X_9_9 <= 1
 0 <= X_9_10 <= 1
 0 <= X_9_11 <= 1
 0 <= X_9_12 <= 1
 0 <= X_9_13 <= 1
 0 <= X_9_14 <= 1
 0 <= X_9_15 <= 1
 0 <= X_10_0 <= 1
 0 <= X_10_1 <= 1
 0 <= X_10_2 <= 1
 0 <= X_10_3 <= 1
 0 <= X_10_4 <= 1
 0 <= X_10_5 <= 1
 0 <= X_10_6 <= 1
 0 <= X_10_7 <= 1
 0 <= X_10_8 <= 1
 0 <= X_10_9 <= 1
 0 <= X_10_10 <= 1
 0 <= X_10_11 <= 1
 0 <= X_10_12 <= 1
 0 <= X_10_13 <= 1
 0 <= X_10_14 <= 1
 0 <= X_10_15 <= 1
 0 <= X_11_0 <= 1
 0 <= X_11_1 <= 1
 0 <= X_11_2 <= 1
 0 <= X_11_3 <= 1
 0 <= X_11_4 <= 1
 0 <= X_11_5 <= 1
 0 <= X_11_6 <= 1
 0 <= X_11_7 <= 1
 0 <= X_11_8 <= 1
 0 <= X_11_9 <= 1
 0 <= X_11_10 <= 1
 0 <= X_11_11 <= 1
 0 <= X_11_12 <= 1
 0 <= X_11_13 <= 1
 0 <= X_11_14 <= 1
 0 <= X_11_15 <= 1
 0 <= X_12_0 <= 1
 0 <= X_12_1 <= 1
 0 <= X_12_2 <= 1
 0 <= X_12_3 <= 1
 0 <= X_12_4 <= 1
 0 <= X_12_5 <= 1
 0 <= X_12_6 <= 1
 0 <= X_12_7 <= 1
 0 <= X_12_8 <= 1
 0 <= X_12_9 <= 1
 0 <= X_12_10 <= 1
 0 <= X_12_11 <= 1
 0 <= X_12_12 <= 1
 0 <= X_12_13 <= 1
 0 <= X_12_14 <= 1
 0 <= X_12_15 <= 1
 0 <= X_13_0 <= 1
 0 <= X_13_1 <= 1
 0 <= X_13_2 <= 1
 0 <= X_13_3 <= 1
 0 <= X_13_4 <= 1
 0 <= X_13_5 <= 1
 0 <= X_13_6 <= 1
 0 <= X_13_7 <= 1
 0 <= X_13_8 <= 1
 0 <= X_13_9 <= 1
 0 <= X_13_10 <= 1
 0 <= X_13_11 <= 1
 0 <= X_13_12 <= 1
 0 <= X_13_13 <= 1
 0 <= X_13_14 <= 1
 0 <= X_13_15 <= 1
 0 <= X_14_0 <= 1
 0 <= X_14_1 <= 1
 0 <= X_14_2 <= 1
 0 <= X_14_3 <= 1
 0 <= X_14_4 <= 1
 0 <= X_14_5 <= 1
 0 <= X_14_6 <= 1
 0 <= X_14_7 <= 1
 0 <= X_14_8 <= 1
 0 <= X_14_9 <= 1
 0 <= X_14_10 <= 1
 0 <= X_14_11 <= 1
 0 <= X_14_12 <= 1
 0 <= X_14_13 <= 1
 0 <= X_14_14 <= 1
 0 <= X_14_15 <= 1
 0 <= X_15_0 <= 1
 0 <= X_15_1 <= 1
 0 <= X_15_2 <= 1
 0 <= X_15_3 <= 1
 0 <= X_15_4 <= 1
 0 <= X_15_5 <= 1
 0 <= X_15_6 <= 1
 0 <= X_15_7 <= 1
 0 <= X_15_8 <= 1
 0 <= X_15_9 <= 1
 0 <= X_15_10 <= 1
 0 <= X_15_11 <= 1
 0 <= X_15_12 <= 1
 0 <= X_15_13 <= 1
 0 <= X_15_14 <= 1
 0 <= X_15_15 <= 1
 0 <= X_16_0 <= 1
 0 <= X_16_1 <= 1
 0 <= X_16_2 <= 1
 0 <= X_16_3 <= 1
 0 <= X_16_4 <= 1
 0 <= X_16_5 <= 1
 0 <= X_16_6 <= 1
 0 <= X_16_7 <= 1
 0 <= X_16_8 <= 1
 0 <= X_16_9 <= 1
 0 <= X_16_10 <= 1
 0 <= X_16_11 <= 1
 0 <= X_16_12 <= 1
 0 <= X_16_13 <= 1
 0 <= X_16_14 <= 1
 0 <= X_16_15 <= 1
 0 <= X_17_0 <= 1
 0 <= X_17_1 <= 1
 0 <= X_17_2 <= 1
 0 <= X_17_3 <= 1
 0 <= X_17_4 <= 1
 0 <= X_17_5 <= 1
 0 <= X_17_6 <= 1
 0 <= X_17_7 <= 1
 0 <= X_17_8 <= 1
 0 <= X_17_9 <= 1
 0 <= X_17_10 <= 1
 0 <= X_17_11 <= 1
 0 <= X_17_12 <= 1
 0 <= X_17_13 <= 1
 0 <= X_17_14 <= 1
 0 <= X_17_15 <= 1
 0 <= X_18_0 <= 1
 0 <= X_18_1 <= 1
 0 <= X_18_2 <= 1
 0 <= X_18_3 <= 1
 0 <= X_18_4 <= 1
 0 <= X_18_5 <= 1
 0 <= X_18_6 <= 1
 0 <= X_18_7 <= 1
 0 <= X_18_8 <= 1
 0 <= X_18_9 <= 1
 0 <= X_18_10 <= 1
 0 <= X_18_11 <= 1
 0 <= X_18_12 <= 1
 0 <= X_18_13 <= 1
 0 <= X_18_14 <= 1
 0 <= X_18_15 <= 1
 0 <= X_19_0 <= 1
 0 <= X_19_1 <= 1
 0 <= X_19_2 <= 1
 0 <= X_19_3 <= 1
 0 <= X_19_4 <= 1
 0 <= X_19_5 <= 1
 0 <= X_19_6 <= 1
 0 <= X_19_7 <= 1
 0 <= X_19_8 <= 1
 0 <= X_19_9 <= 1
 0 <= X_19_10 <= 1
 0 <= X_19_11 <= 1
 0 <= X_19_12 <= 1
 0 <= X_19_13 <= 1
 0 <= X_19_14 <= 1
 0 <= X_19_15 <= 1
 0 <= X_20_0 <= 1
 0 <= X_20_1 <= 1
 0 <= X_20_2 <= 1
 0 <= X_20_3 <= 1
 0 <= X_20_4 <= 1
 0 <= X_20_5 <= 1
 0 <= X_20_6 <= 1
 0 <= X_20_7 <= 1
 0 <= X_20_8 <= 1
 0 <= X_20_9 <= 1
 0 <= X_20_10 <= 1
 0 <= X_20_11 <= 1
 0 <= X_20_12 <= 1
 0 <= X_20_13 <= 1
 0 <= X_20_14 <= 1
 0 <= X_20_15 <= 1
 0 <= X_21_0 <= 1
 0 <= X_21_1 <= 1
 0 <= X_21_2 <= 1
 0 <= X_21_3 <= 1
 0 <= X_21_4 <= 1
 0 <= X_21_5 <= 1
 0 <= X_21_6 <= 1
 0 <= X_21_7 <= 1
 0 <= X_21_8 <= 1
 0 <= X_21_9 <= 1
 0 <= X_21_10 <= 1
 0 <= X_21_11 <= 1
 0 <= X_21_12 <= 1
 0 <= X_21_13 <= 1
 0 <= X_21_14 <= 1
 0 <= X_21_15 <= 1
 0 <= X_22_0 <= 1
 0 <= X_22_1 <= 1
 0 <= X_22_2 <= 1
 0 <= X_22_3 <= 1
 0 <= X_22_4 <= 1
 0 <= X_22_5 <= 1
 0 <= X_22_6 <= 1
 0 <= X_22_7 <= 1
 0 <= X_22_8 <= 1
 0 <= X_22_9 <= 1
 0 <= X_22_10 <= 1
 0 <= X_22_11 <= 1
 0 <= X_22_12 <= 1
 0 <= X_22_13 <= 1
 0 <= X_22_14 <= 1
 0 <= X_22_15 <= 1
 0 <= X_23_0 <= 1
 0 <= X_23_1 <= 1
 0 <= X_23_2 <= 1
 0 <= X_23_3 <= 1
 0 <= X_23_4 <= 1
 0 <= X_23_5 <= 1
 0 <= X_23_6 <= 1
 0 <= X_23_7 <= 1
 0 <= X_23_8 <= 1
 0 <= X_23_9 <= 1
 0 <= X_23_10 <= 1
 0 <= X_23_11 <= 1
 0 <= X_23_12 <= 1
 0 <= X_23_13 <= 1
 0 <= X_23_14 <= 1
 0 <= X_23_15 <= 1
 0 <= X_24_0 <= 1
 0 <= X_24_1 <= 1
 0 <= X_24_2 <= 1
 0 <= X_24_3 <= 1
 0 <= X_24_4 <= 1
 0 <= X_24_5 <= 1
 0 <= X_24_6 <= 1
 0 <= X_24_7 <= 1
 0 <= X_24_8 <= 1
 0 <= X_24_9 <= 1
 0 <= X_24_10 <= 1
 0 <= X_24_11 <= 1
 0 <= X_24_12 <= 1
 0 <= X_24_13 <= 1
 0 <= X_24_14 <= 1
 0 <= X_24_15 <= 1
 0 <= Z_0 <= 1
 0 <= Z_1 <= 1
 0 <= Z_2 <= 1
 0 <= Z_3 <= 1
 0 <= Z_4 <= 1
 0 <= Z_5 <= 1
 0 <= Z_6 <= 1
 0 <= Z_7 <= 1
 0 <= Z_8 <= 1
 0 <= Z_9 <= 1
 0 <= Z_10 <= 1
 0 <= Z_11 <= 1
 0 <= Z_12 <= 1
 0 <= Z_13 <= 1
 0 <= Z_14 <= 1
 0 <= Z_15 <= 1
Generals
 X_0_0  X_0_1  X_0_2  X_0_3  X_0_4  X_0_5  X_0_6  X_0_7  X_0_8  X_0_9  X_0_10 
 X_0_11  X_0_12  X_0_13  X_0_14  X_0_15  X_1_0  X_1_1  X_1_2  X_1_3  X_1_4 
 X_1_5  X_1_6  X_1_7  X_1_8  X_1_9  X_1_10  X_1_11  X_1_12  X_1_13  X_1_14 
 X_1_15  X_2_0  X_2_1  X_2_2  X_2_3  X_2_4  X_2_5  X_2_6  X_2_7  X_2_8  X_2_9 
 X_2_10  X_2_11  X_2_12  X_2_13  X_2_14  X_2_15  X_3_0  X_3_1  X_3_2  X_3_3 
 X_3_4  X_3_5  X_3_6  X_3_7  X_3_8  X_3_9  X_3_10  X_3_11  X_3_12  X_3_13 
 X_3_14  X_3_15  X_4_0  X_4_1  X_4_2  X_4_3  X_4_4  X_4_5  X_4_6  X_4_7  X_4_8 
 X_4_9  X_4_10  X_4_11  X_4_12  X_4_13  X_4_14  X_4_15  X_5_0  X_5_1  X_5_2 
 X_5_3  X_5_4  X_5_5  X_5_6  X_5_7  X_5_8  X_5_9  X_5_10  X_5_11  X_5_12 
 X_5_13  X_5_14  X_5_15  X_6_0  X_6_1  X_6_2  X_6_3  X_6_4  X_6_5  X_6_6 
 X_6_7  X_6_8  X_6_9  X_6_10  X_6_11  X_6_12  X_6_13  X_6_14  X_6_15  X_7_0 
 X_7_1  X_7_2  X_7_3  X_7_4  X_7_5  X_7_6  X_7_7  X_7_8  X_7_9  X_7_10  X_7_11 
 X_7_12  X_7_13  X_7_14  X_7_15  X_8_0  X_8_1  X_8_2  X_8_3  X_8_4  X_8_5 
 X_8_6  X_8_7  X_8_8  X_8_9  X_8_10  X_8_11  X_8_12  X_8_13  X_8_14  X_8_15 
 X_9_0  X_9_1  X_9_2  X_9_3  X_9_4  X_9_5  X_9_6  X_9_7  X_9_8  X_9_9  X_9_10 
 X_9_11  X_9_12  X_9_13  X_9_14  X_9_15  X_10_0  X_10_1  X_10_2  X_10_3 
 X_10_4  X_10_5  X_10_6  X_10_7  X_10_8  X_10_9  X_10_10  X_10_11  X_10_12 
 X_10_13  X_10_14  X_10_15  X_11_0  X_11_1  X_11_2  X_11_3  X_11_4  X_11_5 
 X_11_6  X_11_7  X_11_8  X_11_9  X_11_10  X_11_11  X_11_12  X_11_13  X_11_14 
 X_11_15  X_12_0  X_12_1  X_12_2  X_12_3  X_12_4  X_12_5  X_12_6  X_12_7 
 X_12_8  X_12_9  X_12_10  X_12_11  X_12_12  X_12_13  X_12_14  X_12_15  X_13_0 
 X_13_1  X_13_2  X_13_3  X_13_4  X_13_5  X_13_6  X_13_7  X_13_8  X_13_9 
 X_13_10  X_13_11  X_13_12  X_13_13  X_13_14  X_13_15  X_14_0  X_14_1  X_14_2 
 X_14_3  X_14_4  X_14_5  X_14_6  X_14_7  X_14_8  X_14_9  X_14_10  X_14_11 
 X_14_12  X_14_13  X_14_14  X_14_15  X_15_0  X_15_1  X_15_2  X_15_3  X_15_4 
 X_15_5  X_15_6  X_15_7  X_15_8  X_15_9  X_15_10  X_15_11  X_15_12  X_15_13 
 X_15_14  X_15_15  X_16_0  X_16_1  X_16_2  X_16_3  X_16_4  X_16_5  X_16_6 
 X_16_7  X_16_8  X_16_9  X_16_10  X_16_11  X_16_12  X_16_13  X_16_14  X_16_15 
 X_17_0  X_17_1  X_17_2  X_17_3  X_17_4  X_17_5  X_17_6  X_17_7  X_17_8 
 X_17_9  X_17_10  X_17_11  X_17_12  X_17_13  X_17_14  X_17_15  X_18_0  X_18_1 
 X_18_2  X_18_3  X_18_4  X_18_5  X_18_6  X_18_7  X_18_8  X_18_9  X_18_10 
 X_18_11  X_18_12  X_18_13  X_18_14  X_18_15  X_19_0  X_19_1  X_19_2  X_19_3 
 X_19_4  X_19_5  X_19_6  X_19_7  X_19_8  X_19_9  X_19_10  X_19_11  X_19_12 
 X_19_13  X_19_14  X_19_15  X_20_0  X_20_1  X_20_2  X_20_3  X_20_4  X_20_5 
 X_20_6  X_20_7  X_20_8  X_20_9  X_20_10  X_20_11  X_20_12  X_20_13  X_20_14 
 X_20_15  X_21_0  X_21_1  X_21_2  X_21_3  X_21_4  X_21_5  X_21_6  X_21_7 
 X_21_8  X_21_9  X_21_10  X_21_11  X_21_12  X_21_13  X_21_14  X_21_15  X_22_0 
 X_22_1  X_22_2  X_22_3  X_22_4  X_22_5  X_22_6  X_22_7  X_22_8  X_22_9 
 X_22_10  X_22_11  X_22_12  X_22_13  X_22_14  X_22_15  X_23_0  X_23_1  X_23_2 
 X_23_3  X_23_4  X_23_5  X_23_6  X_23_7  X_23_8  X_23_9  X_23_10  X_23_11 
 X_23_12  X_23_13  X_23_14  X_23_15  X_24_0  X_24_1  X_24_2  X_24_3  X_24_4 
 X_24_5  X_24_6  X_24_7  X_24_8  X_24_9  X_24_10  X_24_11  X_24_12  X_24_13 
 X_24_14  X_24_15  Z_0  Z_1  Z_2  Z_3  Z_4  Z_5  Z_6  Z_7  Z_8  Z_9  Z_10 
 Z_11  Z_12  Z_13  Z_14  Z_15 
End
